p edge 30 38 15
v 1 5
v 3 13 22 29
v 2 12 24
v 1 16
v 3 2 15 25
v 2 9 17
v 1 18
v 2 7 30
v 4 11 14 27 28
v 4 6 8 10 21
v 1 4
v 1 23
v 2 19 20
v 1 3
v 2 1 26
e 1 8
e 1 19
e 3 18
e 3 21
e 3 30
e 4 6
e 4 11
e 4 18
e 5 8
e 5 9
e 5 16
e 5 26
e 6 9
e 6 14
e 6 22
e 7 25
e 8 10
e 8 19
e 9 24
e 10 24
e 11 12
e 11 17
e 13 14
e 13 18
e 13 24
e 13 27
e 15 21
e 15 25
e 17 28
e 17 29
e 18 21
e 18 23
e 21 26
e 22 23
e 22 28
e 22 29
e 24 28
e 25 26
